(set-logic ALL)
(set-option :produce-models true)
(declare-sort BoundSet 0)
(declare-sort UnboundSet 0)
(declare-fun IsPutting (BoundSet BoundSet) Bool)
(declare-fun IsUnder (BoundSet) Bool)
(assert (not (=> (exists ((a BoundSet)) (exists ((b BoundSet)) (exists ((c BoundSet)) (and (IsPutting a c) (IsUnder b))))) (exists ((a BoundSet)) (exists ((d BoundSet)) (exists ((b BoundSet)) (and (IsPutting a d) (IsUnder b))))))))
(check-sat)
(get-model)